50
    44    79    51    67    14    79     2    94    83    48    97    34    92    61    98    47    52    84    83    31    36    73    49    24    84    76     4     7     2    30    76   100    61    63     5    63    97    94    48   100    14    32    79    51    79    78    85     1    26    23
     6     6     8     4     3     8     6     5     2     7     9     7     8     3     7     7     7     4     8     1     5     5     4     1     7     9    10     7     8     5     8     5     1     9     3    10     2     5     5     1     4     5    10     9     1     6     6     8     5     4
  1698  2140  1700     0  1237     0  1014  2519  1289  1595   475  1559   526  2206   332  1352  1846   766  1780  1042  1965   654    48  1824  1997  2001  1286  1609     0  1259  1653  2281   801   561  1402  1561  1505  1687   773   277   560  1420    75     0  2107  2318  1175   987  1210  2465
